letting n_nurses=25
letting n_days=7
letting n_shift_types=4
letting max_covers=8
letting t_covers=87
letting covers=[5,6,3,0,3,4,8,0,6,7,3,0,4,4,2,0,3,3,2,0,5,6,3,0,5,2,3,0]
letting prefes=[3,2,2,2,1,4,1,4,2,2,2,2,3,2,2,2,1,4,1,4,2,2,2,2,3,2,2,2,1,2,2,2,3,1,3,1,1,2,1,2,1,2,2,2,3,1,3,1,1,2,1,2,1,2,2,2,1,1,1,1,1,4,1,4,1,1,1,1,1,1,1,1,1,4,1,4,1,1,1,1,1,1,1,1,1,2,2,2,3,4,3,4,2,2,2,2,1,2,2,2,3,4,3,4,2,2,2,2,1,2,2,2,1,2,2,2,1,4,1,4,1,1,2,1,1,2,2,2,1,4,1,4,1,1,2,1,1,2,2,2,3,2,2,2,1,4,1,4,1,2,1,2,3,2,2,2,1,4,1,4,1,2,1,2,3,2,2,2,3,2,2,2,3,4,3,4,1,2,2,2,3,2,2,2,3,4,3,4,1,2,2,2,3,2,2,2,1,2,2,2,3,4,3,4,1,2,2,2,1,2,2,2,3,4,3,4,1,2,2,2,1,2,2,2,1,1,1,1,1,1,1,1,1,2,2,2,1,1,1,1,1,1,1,1,1,2,2,2,1,1,1,1,1,1,1,1,1,4,1,4,1,2,1,2,1,1,1,1,1,4,1,4,1,2,1,2,1,1,1,1,1,2,2,2,1,1,1,1,1,1,2,1,1,2,2,2,1,1,1,1,1,1,2,1,1,2,2,2,1,1,1,1,1,4,1,4,1,1,2,1,1,1,1,1,1,4,1,4,1,1,2,1,1,1,1,1,1,2,2,2,1,4,1,4,1,2,2,2,1,2,2,2,1,4,1,4,1,2,2,2,1,2,2,2,1,2,2,2,1,4,1,4,1,1,2,1,1,2,2,2,1,4,1,4,1,1,2,1,1,2,2,2,3,2,2,2,1,1,1,1,1,2,2,2,3,2,2,2,1,1,1,1,1,2,2,2,3,2,2,2,1,1,1,1,1,4,1,4,2,2,2,2,1,1,1,1,1,4,1,4,2,2,2,2,1,1,1,1,1,2,2,2,1,4,1,4,2,2,2,2,1,2,2,2,1,4,1,4,2,2,2,2,1,2,2,2,1,2,2,2,1,4,1,4,1,2,1,2,1,2,2,2,1,4,1,4,1,2,1,2,1,2,2,2,1,2,2,2,1,4,1,4,1,2,2,2,1,2,2,2,1,4,1,4,1,2,2,2,1,2,2,2,1,2,2,2,1,4,1,4,1,2,2,2,1,2,2,2,1,4,1,4,1,2,2,2,1,2,2,2,1,2,2,2,1,4,1,4,1,2,2,2,1,2,2,2,1,4,1,4,1,2,2,2,1,2,2,2,1,2,2,2,3,4,3,4,1,2,2,2,1,2,2,2,3,4,3,4,1,2,2,2,1,2,2,2,1,2,2,2,1,1,1,1,1,2,2,2,1,2,2,2,1,1,1,1,1,2,2,2,1,2,2,2,1,2,2,2,1,4,1,4,2,2,2,2,1,2,2,2,1,4,1,4,2,2,2,2,1,2,2,2,3,2,2,2,1,4,1,4,1,2,2,2,3,2,2,2,1,4,1,4,1,2,2,2,3,2,2,2]
letting ub =  268
